
Gurobi 7.0.2 (linux64, Python) logging started Tue Apr 25 13:48:30 2017


Gurobi 7.0.2 (linux64, Python) logging started Tue Apr 25 13:48:42 2017


Gurobi 7.0.2 (linux64, Python) logging started Tue Apr 25 14:04:58 2017


Gurobi 7.0.2 (linux64, Python) logging started Tue Apr 25 15:37:06 2017


Gurobi 7.0.2 (linux64, Python) logging started Mon May  1 14:40:13 2017


Gurobi 7.0.2 (linux64, Python) logging started Mon May  8 13:03:50 2017


Gurobi 7.0.2 (linux64, Python) logging started Mon May  8 13:06:57 2017


Gurobi 7.0.2 (linux64, Python) logging started Mon May  8 13:07:06 2017


Gurobi 7.0.2 (linux64, Python) logging started Mon May  8 13:07:46 2017


Gurobi 7.0.2 (linux64, Python) logging started Mon May  8 14:46:05 2017


Gurobi 7.0.2 (linux64, Python) logging started Fri Sep 22 15:00:46 2017


Gurobi 7.0.2 (linux64, Python) logging started Fri Sep 22 15:03:41 2017


Gurobi 7.0.2 (linux64, Python) logging started Fri Sep 22 15:03:50 2017


Gurobi 7.0.2 (linux64, Python) logging started Fri Sep 22 15:04:29 2017


Gurobi 7.0.2 (linux64, Python) logging started Fri Sep 22 16:13:56 2017


Gurobi 7.0.2 (linux64, Python) logging started Fri Sep 22 16:16:49 2017


Gurobi 7.0.2 (linux64, Python) logging started Fri Sep 22 16:16:58 2017


Gurobi 7.0.2 (linux64, Python) logging started Fri Sep 22 16:17:36 2017

